l=1216;
a=5;
setup_costs=[|1,1,1,1,1,
|1,1,1,1,1,
|1,1,1,1,1,
|1,1,1,1,1,
|1,1,1,1,1,
|0,0,0,0,0|];
setup_times=[|3,3,3,3,3,
|3,3,3,3,3,
|3,3,3,3,3,
|3,3,3,3,3,
|3,3,3,3,3,
|0,0,0,0,0|];
m=5;
min_cap=[0,0,0,0,0];
max_cap=[14,41,6,79,64];

initState=[2,3,4,5,4];
s=5;
m_a_s = [|0,0,0,0,271,
|271,544,716,946,1073,
|0,0,173,488,1138,
|0,0,0,0,299,
|0,85,381,567,1177|];
m_a_e = [|0,0,0,0,982,
|512,703,897,1072,1182,
|0,0,421,1032,1198,
|0,0,0,0,1051,
|0,330,527,1062,1213|];
n=100;
eligible_machine = [{4,3},
{2},
{1},
{5},
{5},
{4},
{5,3},
{5,2},
{3,5},
{1,5},
{3,1,5},
{4,3},
{2,5},
{4,1,2},
{2,1},
{4,1},
{3,5},
{2,1,4,5},
{2},
{1,4},
{4},
{5},
{1},
{1},
{4,5},
{4},
{1},
{1},
{1,2},
{4},
{3},
{3},
{1,5},
{4},
{2},
{4,3},
{5,1},
{1,3},
{2,4},
{4,1,5},
{5},
{1,2},
{1},
{5},
{4},
{5},
{2,5},
{3},
{5,3},
{5,3},
{3},
{2,4,5},
{2},
{4,3,5},
{2,4},
{1,5},
{5},
{2},
{1,5},
{1},
{5,1},
{2},
{2},
{4,3},
{2,1},
{3},
{2,5},
{1,5},
{2},
{5,4},
{1,2},
{2,5},
{5},
{2},
{3,1,4},
{3,2},
{2,3},
{4,1,2},
{3,4},
{2,5},
{1,5},
{2},
{4,5},
{1},
{2,4},
{2,4,5},
{2},
{2,3,5},
{5,1,2},
{4,1,2},
{1},
{3,1},
{2,4},
{5,2},
{4,5},
{5},
{3},
{4,1},
{4},
{1,2,3}];
earliest_start=[50,13,23,51,55,53,52,20,44,57,22,39,42,18,39,54,7,34,13,36,29,21,50,34,24,10,28,33,30,17,1,42,43,10,33,37,13,28,25,1,28,27,16,11,43,10,32,25,20,26,13,25,34,55,38,29,20,46,27,45,24,19,48,26,56,38,54,32,43,1,40,36,8,12,7,2,5,38,49,13,36,2,12,3,4,33,7,45,30,4,16,25,1,38,34,9,36,47,13,4];
latest_end=[53,17,29,55,64,70,59,28,56,64,39,54,57,20,54,73,19,41,18,42,37,28,52,39,30,11,47,39,34,23,6,50,51,24,44,52,32,29,30,7,41,28,21,26,53,12,46,29,34,45,20,41,45,56,41,38,27,48,39,56,25,32,59,35,67,57,61,33,50,9,57,37,16,17,10,4,10,39,50,21,44,13,13,11,14,41,15,55,37,11,28,31,11,55,36,23,51,52,14,13];
min_time=[2,3,5,3,5,9,7,5,10,7,9,9,9,2,9,10,7,6,4,5,8,4,2,5,5,1,10,6,4,4,3,6,5,9,9,8,10,1,3,4,9,1,3,9,6,2,10,4,8,10,5,10,8,1,3,5,4,2,8,9,1,10,8,8,9,10,5,1,4,6,9,1,6,3,2,2,3,1,1,8,6,10,1,5,8,5,7,7,6,4,9,4,10,9,2,9,8,4,1,6];
max_time=[3,4,6,6,7,9,8,5,10,10,10,10,9,6,9,10,7,8,5,8,8,7,4,9,8,10,10,9,8,4,9,6,10,10,10,10,10,7,6,7,9,4,10,9,10,7,10,10,8,10,10,10,9,9,10,10,9,9,8,10,6,10,8,9,9,10,6,9,7,10,9,7,7,4,5,6,6,10,1,9,8,10,4,5,8,6,10,7,7,7,10,6,10,9,3,9,8,6,9,6];
size=[2,4,2,3,4,5,5,3,1,4,2,2,3,3,1,2,1,1,4,4,1,5,1,2,3,5,4,5,3,3,1,1,4,3,5,5,4,2,1,5,2,1,4,5,5,3,1,5,3,5,5,3,1,2,1,1,5,5,4,3,3,4,5,4,5,4,1,3,4,5,5,3,1,1,4,5,4,3,4,3,4,4,4,2,2,4,1,4,1,4,2,5,2,3,2,2,3,3,1,1];
attribute=[4,5,3,4,2,4,3,5,2,1,5,2,2,4,5,5,3,1,1,2,1,1,2,2,1,3,4,4,3,1,1,4,3,3,2,4,5,5,1,1,4,3,1,2,3,3,5,1,3,4,3,4,1,2,5,2,3,2,1,2,5,1,3,4,2,5,4,4,1,3,2,2,3,4,2,3,3,1,4,3,4,2,3,2,2,2,5,3,1,1,5,5,1,2,5,2,3,1,2,4];

upper_bound_integer_objective=5814569;
mult_factor_total_runtime=10201;
mult_factor_finished_toolate=101;
mult_factor_total_setuptimes=0;
mult_factor_total_setupcosts=1;
running_time_bound=569;
min_duration=1;
max_duration=10;
max_setup_time=3;
max_setup_cost=1;
